NAME /Users/henri/Research/solvers/instances/idol-instances/robust/collection/spp_dkp_Lefebvre_et_al_2026/shortest_path_10_3/uncertainty_sets/discrete_knapsack
ROWS
 N  OBJ
 L  primal_lower
COLUMNS
    MARKER    'MARKER'                 'INTORG'
    y[0,1]     OBJ        0
    y[0,1]     primal_lower -4.66
    y[0,2]     OBJ        0
    y[0,2]     primal_lower -2.59
    y[0,3]     OBJ        0
    y[0,3]     primal_lower -1.33
    y[0,4]     OBJ        0
    y[0,4]     primal_lower -0.36
    y[0,5]     OBJ        0
    y[0,5]     primal_lower -2.09
    y[0,6]     OBJ        0
    y[0,6]     primal_lower -2.23
    y[0,7]     OBJ        0
    y[0,7]     primal_lower -0.23
    y[0,8]     OBJ        0
    y[0,8]     primal_lower -0.77
    y[0,9]     OBJ        0
    y[0,9]     primal_lower -0.55
    y[1,0]     OBJ        0
    y[1,0]     primal_lower -2.95
    y[1,2]     OBJ        0
    y[1,2]     primal_lower -4.03
    y[1,3]     OBJ        0
    y[1,3]     primal_lower -3.06
    y[1,4]     OBJ        0
    y[1,4]     primal_lower -4.66
    y[1,5]     OBJ        0
    y[1,5]     primal_lower -2.21
    y[1,6]     OBJ        0
    y[1,6]     primal_lower -2.91
    y[1,7]     OBJ        0
    y[1,7]     primal_lower -1.33
    y[1,8]     OBJ        0
    y[1,8]     primal_lower -4.6
    y[1,9]     OBJ        0
    y[1,9]     primal_lower -3.17
    y[2,0]     OBJ        0
    y[2,0]     primal_lower -2.07
    y[2,1]     OBJ        0
    y[2,1]     primal_lower -1.36
    y[2,3]     OBJ        0
    y[2,3]     primal_lower -2.4
    y[2,4]     OBJ        0
    y[2,4]     primal_lower -0.53
    y[2,5]     OBJ        0
    y[2,5]     primal_lower -1.07
    y[2,6]     OBJ        0
    y[2,6]     primal_lower -2.25
    y[2,7]     OBJ        0
    y[2,7]     primal_lower -1.14
    y[2,9]     OBJ        0
    y[2,9]     primal_lower -1.83
    y[3,0]     OBJ        0
    y[3,0]     primal_lower -3.86
    y[3,1]     OBJ        0
    y[3,1]     primal_lower -0.35
    y[3,2]     OBJ        0
    y[3,2]     primal_lower -4.35
    y[3,4]     OBJ        0
    y[3,4]     primal_lower -1.06
    y[3,5]     OBJ        0
    y[3,5]     primal_lower -3.33
    y[3,6]     OBJ        0
    y[3,6]     primal_lower -0.52
    y[3,8]     OBJ        0
    y[3,8]     primal_lower -2.83
    y[3,9]     OBJ        0
    y[3,9]     primal_lower -1.92
    y[4,0]     OBJ        0
    y[4,0]     primal_lower -3.94
    y[4,1]     OBJ        0
    y[4,1]     primal_lower -1.18
    y[4,2]     OBJ        0
    y[4,2]     primal_lower -2.16
    y[4,3]     OBJ        0
    y[4,3]     primal_lower -2.62
    y[4,5]     OBJ        0
    y[4,5]     primal_lower -1.19
    y[4,6]     OBJ        0
    y[4,6]     primal_lower -0.52
    y[4,7]     OBJ        0
    y[4,7]     primal_lower -3.42
    y[5,0]     OBJ        0
    y[5,0]     primal_lower -1.46
    y[5,1]     OBJ        0
    y[5,1]     primal_lower -3.89
    y[5,2]     OBJ        0
    y[5,2]     primal_lower -2.13
    y[5,3]     OBJ        0
    y[5,3]     primal_lower -0.44
    y[5,4]     OBJ        0
    y[5,4]     primal_lower -4.18
    y[5,6]     OBJ        0
    y[5,6]     primal_lower -3.49
    y[5,9]     OBJ        0
    y[5,9]     primal_lower -0.57
    y[6,0]     OBJ        0
    y[6,0]     primal_lower -4.03
    y[6,1]     OBJ        0
    y[6,1]     primal_lower -0.32
    y[6,2]     OBJ        0
    y[6,2]     primal_lower -0.87
    y[6,3]     OBJ        0
    y[6,3]     primal_lower -0.81
    y[6,4]     OBJ        0
    y[6,4]     primal_lower -4.34
    y[6,5]     OBJ        0
    y[6,5]     primal_lower -3.14
    y[6,8]     OBJ        0
    y[6,8]     primal_lower -1.2
    y[6,9]     OBJ        0
    y[6,9]     primal_lower -1.18
    y[7,0]     OBJ        0
    y[7,0]     primal_lower -4.63
    y[7,1]     OBJ        0
    y[7,1]     primal_lower -3.2
    y[7,2]     OBJ        0
    y[7,2]     primal_lower -1.89
    y[7,4]     OBJ        0
    y[7,4]     primal_lower -0.3
    y[8,0]     OBJ        0
    y[8,0]     primal_lower -2.09
    y[8,1]     OBJ        0
    y[8,1]     primal_lower -0.98
    y[8,3]     OBJ        0
    y[8,3]     primal_lower -1.52
    y[8,6]     OBJ        0
    y[8,6]     primal_lower -3.06
    y[8,9]     OBJ        0
    y[8,9]     primal_lower -3.41
    y[9,0]     OBJ        0
    y[9,0]     primal_lower -2.21
    y[9,1]     OBJ        0
    y[9,1]     primal_lower -0.88
    y[9,2]     OBJ        0
    y[9,2]     primal_lower -1.4
    y[9,3]     OBJ        0
    y[9,3]     primal_lower -0.66
    y[9,5]     OBJ        0
    y[9,5]     primal_lower -0.45
    y[9,6]     OBJ        0
    y[9,6]     primal_lower -2.32
    y[9,8]     OBJ        0
    y[9,8]     primal_lower -4.66
    u[0,1]     OBJ        0
    u[0,1]     primal_lower 95
    u[0,2]     OBJ        0
    u[0,2]     primal_lower 88
    u[0,3]     OBJ        0
    u[0,3]     primal_lower 12
    u[0,4]     OBJ        0
    u[0,4]     primal_lower 76
    u[0,5]     OBJ        0
    u[0,5]     primal_lower 14
    u[0,6]     OBJ        0
    u[0,6]     primal_lower 58
    u[0,7]     OBJ        0
    u[0,7]     primal_lower 23
    u[0,8]     OBJ        0
    u[0,8]     primal_lower 38
    u[0,9]     OBJ        0
    u[0,9]     primal_lower 32
    u[1,0]     OBJ        0
    u[1,0]     primal_lower 19
    u[1,2]     OBJ        0
    u[1,2]     primal_lower 93
    u[1,3]     OBJ        0
    u[1,3]     primal_lower 67
    u[1,4]     OBJ        0
    u[1,4]     primal_lower 57
    u[1,5]     OBJ        0
    u[1,5]     primal_lower 55
    u[1,6]     OBJ        0
    u[1,6]     primal_lower 67
    u[1,7]     OBJ        0
    u[1,7]     primal_lower 49
    u[1,8]     OBJ        0
    u[1,8]     primal_lower 41
    u[1,9]     OBJ        0
    u[1,9]     primal_lower 8
    u[2,0]     OBJ        0
    u[2,0]     primal_lower 58
    u[2,1]     OBJ        0
    u[2,1]     primal_lower 96
    u[2,3]     OBJ        0
    u[2,3]     primal_lower 3
    u[2,4]     OBJ        0
    u[2,4]     primal_lower 73
    u[2,5]     OBJ        0
    u[2,5]     primal_lower 91
    u[2,6]     OBJ        0
    u[2,6]     primal_lower 73
    u[2,7]     OBJ        0
    u[2,7]     primal_lower 48
    u[2,9]     OBJ        0
    u[2,9]     primal_lower 45
    u[3,0]     OBJ        0
    u[3,0]     primal_lower 88
    u[3,1]     OBJ        0
    u[3,1]     primal_lower 92
    u[3,2]     OBJ        0
    u[3,2]     primal_lower 56
    u[3,4]     OBJ        0
    u[3,4]     primal_lower 61
    u[3,5]     OBJ        0
    u[3,5]     primal_lower 48
    u[3,6]     OBJ        0
    u[3,6]     primal_lower 82
    u[3,8]     OBJ        0
    u[3,8]     primal_lower 41
    u[3,9]     OBJ        0
    u[3,9]     primal_lower 48
    u[4,0]     OBJ        0
    u[4,0]     primal_lower 4
    u[4,1]     OBJ        0
    u[4,1]     primal_lower 36
    u[4,2]     OBJ        0
    u[4,2]     primal_lower 33
    u[4,3]     OBJ        0
    u[4,3]     primal_lower 100
    u[4,5]     OBJ        0
    u[4,5]     primal_lower 70
    u[4,6]     OBJ        0
    u[4,6]     primal_lower 47
    u[4,7]     OBJ        0
    u[4,7]     primal_lower 13
    u[5,0]     OBJ        0
    u[5,0]     primal_lower 99
    u[5,1]     OBJ        0
    u[5,1]     primal_lower 67
    u[5,2]     OBJ        0
    u[5,2]     primal_lower 9
    u[5,3]     OBJ        0
    u[5,3]     primal_lower 36
    u[5,4]     OBJ        0
    u[5,4]     primal_lower 22
    u[5,6]     OBJ        0
    u[5,6]     primal_lower 78
    u[5,9]     OBJ        0
    u[5,9]     primal_lower 70
    u[6,0]     OBJ        0
    u[6,0]     primal_lower 20
    u[6,1]     OBJ        0
    u[6,1]     primal_lower 47
    u[6,2]     OBJ        0
    u[6,2]     primal_lower 56
    u[6,3]     OBJ        0
    u[6,3]     primal_lower 8
    u[6,4]     OBJ        0
    u[6,4]     primal_lower 10
    u[6,5]     OBJ        0
    u[6,5]     primal_lower 18
    u[6,8]     OBJ        0
    u[6,8]     primal_lower 47
    u[6,9]     OBJ        0
    u[6,9]     primal_lower 9
    u[7,0]     OBJ        0
    u[7,0]     primal_lower 13
    u[7,1]     OBJ        0
    u[7,1]     primal_lower 96
    u[7,2]     OBJ        0
    u[7,2]     primal_lower 87
    u[7,4]     OBJ        0
    u[7,4]     primal_lower 62
    u[8,0]     OBJ        0
    u[8,0]     primal_lower 13
    u[8,1]     OBJ        0
    u[8,1]     primal_lower 91
    u[8,3]     OBJ        0
    u[8,3]     primal_lower 71
    u[8,6]     OBJ        0
    u[8,6]     primal_lower 74
    u[8,9]     OBJ        0
    u[8,9]     primal_lower 35
    u[9,0]     OBJ        0
    u[9,0]     primal_lower 30
    u[9,1]     OBJ        0
    u[9,1]     primal_lower 73
    u[9,2]     OBJ        0
    u[9,2]     primal_lower 29
    u[9,3]     OBJ        0
    u[9,3]     primal_lower 56
    u[9,5]     OBJ        0
    u[9,5]     primal_lower 61
    u[9,6]     OBJ        0
    u[9,6]     primal_lower 81
    u[9,8]     OBJ        0
    u[9,8]     primal_lower 67
    MARKER    'MARKER'                 'INTEND'
RHS
    RHS       primal_lower 339
BOUNDS
 LI BND       y[0,1]     0
 UI BND       y[0,1]     1
 LI BND       y[0,2]     0
 UI BND       y[0,2]     1
 LI BND       y[0,3]     0
 UI BND       y[0,3]     1
 LI BND       y[0,4]     0
 UI BND       y[0,4]     1
 LI BND       y[0,5]     0
 UI BND       y[0,5]     1
 LI BND       y[0,6]     0
 UI BND       y[0,6]     1
 LI BND       y[0,7]     0
 UI BND       y[0,7]     1
 LI BND       y[0,8]     0
 UI BND       y[0,8]     1
 LI BND       y[0,9]     0
 UI BND       y[0,9]     1
 LI BND       y[1,0]     0
 UI BND       y[1,0]     1
 LI BND       y[1,2]     0
 UI BND       y[1,2]     1
 LI BND       y[1,3]     0
 UI BND       y[1,3]     1
 LI BND       y[1,4]     0
 UI BND       y[1,4]     1
 LI BND       y[1,5]     0
 UI BND       y[1,5]     1
 LI BND       y[1,6]     0
 UI BND       y[1,6]     1
 LI BND       y[1,7]     0
 UI BND       y[1,7]     1
 LI BND       y[1,8]     0
 UI BND       y[1,8]     1
 LI BND       y[1,9]     0
 UI BND       y[1,9]     1
 LI BND       y[2,0]     0
 UI BND       y[2,0]     1
 LI BND       y[2,1]     0
 UI BND       y[2,1]     1
 LI BND       y[2,3]     0
 UI BND       y[2,3]     1
 LI BND       y[2,4]     0
 UI BND       y[2,4]     1
 LI BND       y[2,5]     0
 UI BND       y[2,5]     1
 LI BND       y[2,6]     0
 UI BND       y[2,6]     1
 LI BND       y[2,7]     0
 UI BND       y[2,7]     1
 LI BND       y[2,9]     0
 UI BND       y[2,9]     1
 LI BND       y[3,0]     0
 UI BND       y[3,0]     1
 LI BND       y[3,1]     0
 UI BND       y[3,1]     1
 LI BND       y[3,2]     0
 UI BND       y[3,2]     1
 LI BND       y[3,4]     0
 UI BND       y[3,4]     1
 LI BND       y[3,5]     0
 UI BND       y[3,5]     1
 LI BND       y[3,6]     0
 UI BND       y[3,6]     1
 LI BND       y[3,8]     0
 UI BND       y[3,8]     1
 LI BND       y[3,9]     0
 UI BND       y[3,9]     1
 LI BND       y[4,0]     0
 UI BND       y[4,0]     1
 LI BND       y[4,1]     0
 UI BND       y[4,1]     1
 LI BND       y[4,2]     0
 UI BND       y[4,2]     1
 LI BND       y[4,3]     0
 UI BND       y[4,3]     1
 LI BND       y[4,5]     0
 UI BND       y[4,5]     1
 LI BND       y[4,6]     0
 UI BND       y[4,6]     1
 LI BND       y[4,7]     0
 UI BND       y[4,7]     1
 LI BND       y[5,0]     0
 UI BND       y[5,0]     1
 LI BND       y[5,1]     0
 UI BND       y[5,1]     1
 LI BND       y[5,2]     0
 UI BND       y[5,2]     1
 LI BND       y[5,3]     0
 UI BND       y[5,3]     1
 LI BND       y[5,4]     0
 UI BND       y[5,4]     1
 LI BND       y[5,6]     0
 UI BND       y[5,6]     1
 LI BND       y[5,9]     0
 UI BND       y[5,9]     1
 LI BND       y[6,0]     0
 UI BND       y[6,0]     1
 LI BND       y[6,1]     0
 UI BND       y[6,1]     1
 LI BND       y[6,2]     0
 UI BND       y[6,2]     1
 LI BND       y[6,3]     0
 UI BND       y[6,3]     1
 LI BND       y[6,4]     0
 UI BND       y[6,4]     1
 LI BND       y[6,5]     0
 UI BND       y[6,5]     1
 LI BND       y[6,8]     0
 UI BND       y[6,8]     1
 LI BND       y[6,9]     0
 UI BND       y[6,9]     1
 LI BND       y[7,0]     0
 UI BND       y[7,0]     1
 LI BND       y[7,1]     0
 UI BND       y[7,1]     1
 LI BND       y[7,2]     0
 UI BND       y[7,2]     1
 LI BND       y[7,4]     0
 UI BND       y[7,4]     1
 LI BND       y[8,0]     0
 UI BND       y[8,0]     1
 LI BND       y[8,1]     0
 UI BND       y[8,1]     1
 LI BND       y[8,3]     0
 UI BND       y[8,3]     1
 LI BND       y[8,6]     0
 UI BND       y[8,6]     1
 LI BND       y[8,9]     0
 UI BND       y[8,9]     1
 LI BND       y[9,0]     0
 UI BND       y[9,0]     1
 LI BND       y[9,1]     0
 UI BND       y[9,1]     1
 LI BND       y[9,2]     0
 UI BND       y[9,2]     1
 LI BND       y[9,3]     0
 UI BND       y[9,3]     1
 LI BND       y[9,5]     0
 UI BND       y[9,5]     1
 LI BND       y[9,6]     0
 UI BND       y[9,6]     1
 LI BND       y[9,8]     0
 UI BND       y[9,8]     1
 LI BND       u[0,1]     0
 UI BND       u[0,1]     1
 LI BND       u[0,2]     0
 UI BND       u[0,2]     1
 LI BND       u[0,3]     0
 UI BND       u[0,3]     1
 LI BND       u[0,4]     0
 UI BND       u[0,4]     1
 LI BND       u[0,5]     0
 UI BND       u[0,5]     1
 LI BND       u[0,6]     0
 UI BND       u[0,6]     1
 LI BND       u[0,7]     0
 UI BND       u[0,7]     1
 LI BND       u[0,8]     0
 UI BND       u[0,8]     1
 LI BND       u[0,9]     0
 UI BND       u[0,9]     1
 LI BND       u[1,0]     0
 UI BND       u[1,0]     1
 LI BND       u[1,2]     0
 UI BND       u[1,2]     1
 LI BND       u[1,3]     0
 UI BND       u[1,3]     1
 LI BND       u[1,4]     0
 UI BND       u[1,4]     1
 LI BND       u[1,5]     0
 UI BND       u[1,5]     1
 LI BND       u[1,6]     0
 UI BND       u[1,6]     1
 LI BND       u[1,7]     0
 UI BND       u[1,7]     1
 LI BND       u[1,8]     0
 UI BND       u[1,8]     1
 LI BND       u[1,9]     0
 UI BND       u[1,9]     1
 LI BND       u[2,0]     0
 UI BND       u[2,0]     1
 LI BND       u[2,1]     0
 UI BND       u[2,1]     1
 LI BND       u[2,3]     0
 UI BND       u[2,3]     1
 LI BND       u[2,4]     0
 UI BND       u[2,4]     1
 LI BND       u[2,5]     0
 UI BND       u[2,5]     1
 LI BND       u[2,6]     0
 UI BND       u[2,6]     1
 LI BND       u[2,7]     0
 UI BND       u[2,7]     1
 LI BND       u[2,9]     0
 UI BND       u[2,9]     1
 LI BND       u[3,0]     0
 UI BND       u[3,0]     1
 LI BND       u[3,1]     0
 UI BND       u[3,1]     1
 LI BND       u[3,2]     0
 UI BND       u[3,2]     1
 LI BND       u[3,4]     0
 UI BND       u[3,4]     1
 LI BND       u[3,5]     0
 UI BND       u[3,5]     1
 LI BND       u[3,6]     0
 UI BND       u[3,6]     1
 LI BND       u[3,8]     0
 UI BND       u[3,8]     1
 LI BND       u[3,9]     0
 UI BND       u[3,9]     1
 LI BND       u[4,0]     0
 UI BND       u[4,0]     1
 LI BND       u[4,1]     0
 UI BND       u[4,1]     1
 LI BND       u[4,2]     0
 UI BND       u[4,2]     1
 LI BND       u[4,3]     0
 UI BND       u[4,3]     1
 LI BND       u[4,5]     0
 UI BND       u[4,5]     1
 LI BND       u[4,6]     0
 UI BND       u[4,6]     1
 LI BND       u[4,7]     0
 UI BND       u[4,7]     1
 LI BND       u[5,0]     0
 UI BND       u[5,0]     1
 LI BND       u[5,1]     0
 UI BND       u[5,1]     1
 LI BND       u[5,2]     0
 UI BND       u[5,2]     1
 LI BND       u[5,3]     0
 UI BND       u[5,3]     1
 LI BND       u[5,4]     0
 UI BND       u[5,4]     1
 LI BND       u[5,6]     0
 UI BND       u[5,6]     1
 LI BND       u[5,9]     0
 UI BND       u[5,9]     1
 LI BND       u[6,0]     0
 UI BND       u[6,0]     1
 LI BND       u[6,1]     0
 UI BND       u[6,1]     1
 LI BND       u[6,2]     0
 UI BND       u[6,2]     1
 LI BND       u[6,3]     0
 UI BND       u[6,3]     1
 LI BND       u[6,4]     0
 UI BND       u[6,4]     1
 LI BND       u[6,5]     0
 UI BND       u[6,5]     1
 LI BND       u[6,8]     0
 UI BND       u[6,8]     1
 LI BND       u[6,9]     0
 UI BND       u[6,9]     1
 LI BND       u[7,0]     0
 UI BND       u[7,0]     1
 LI BND       u[7,1]     0
 UI BND       u[7,1]     1
 LI BND       u[7,2]     0
 UI BND       u[7,2]     1
 LI BND       u[7,4]     0
 UI BND       u[7,4]     1
 LI BND       u[8,0]     0
 UI BND       u[8,0]     1
 LI BND       u[8,1]     0
 UI BND       u[8,1]     1
 LI BND       u[8,3]     0
 UI BND       u[8,3]     1
 LI BND       u[8,6]     0
 UI BND       u[8,6]     1
 LI BND       u[8,9]     0
 UI BND       u[8,9]     1
 LI BND       u[9,0]     0
 UI BND       u[9,0]     1
 LI BND       u[9,1]     0
 UI BND       u[9,1]     1
 LI BND       u[9,2]     0
 UI BND       u[9,2]     1
 LI BND       u[9,3]     0
 UI BND       u[9,3]     1
 LI BND       u[9,5]     0
 UI BND       u[9,5]     1
 LI BND       u[9,6]     0
 UI BND       u[9,6]     1
 LI BND       u[9,8]     0
 UI BND       u[9,8]     1
ENDATA
